User:   intvengiel@DESKTOP-CUQAD65
Date:   Fri Jan 31 08:10:18 2025
Arch:   x86_64
Pid:    2549536
CWD:    /home/intvengiel/workshop-physics/temporary
Python: 3.12.8
gpaw:   /home/intvengiel/miniconda3/envs/gpaw-env/lib/python3.12/site-packages/gpaw
_gpaw:  /home/intvengiel/miniconda3/envs/gpaw-env/lib/python3.12/site-packages/
        _gpaw.cpython-312-x86_64-linux-gnu.so
ase:    /home/intvengiel/miniconda3/envs/gpaw-env/lib/python3.12/site-packages/ase (version 3.24.0)
numpy:  /home/intvengiel/miniconda3/envs/gpaw-env/lib/python3.12/site-packages/numpy (version 1.26.4)
scipy:  /home/intvengiel/miniconda3/envs/gpaw-env/lib/python3.12/site-packages/scipy (version 1.15.1)
units:  Angstrom and eV
cores: 1
OpenMP: True
OMP_NUM_THREADS: 1

Input parameters:
  kpts: [6 6 4]
  mode: {ecut: 600.0,
         name: pw}
  occupations: {fixmagmom: False,
                name: fermi-dirac,
                width: 0.01}
  xc: PBE

System changes: positions, numbers, cell, pbc, initial_charges, initial_magmoms

Initialize ...

species:
  C:
    name: Carbon
    id: 4aa54d4b901d75f77cc0ea3eec22967b
    Z: 6.0
    valence: 4
    core: 2
    charge: 0.0
    file: /home/intvengiel/miniconda3/envs/gpaw-env/share/gpaw/C.PBE.gz
    compensation charges: {type: gauss,
                           rc: 0.20,
                           lmax: 2}
    cutoffs: {filter: 1.14,
              core: 1.14}
    projectors:
      #              energy  rcut
      - 2s(2.00)   -13.751   0.635
      - 2p(2.00)    -5.284   0.635
      -  s          13.461   0.635
      -  p          21.927   0.635
      -  d           0.000   0.635

    # Using partial waves for C as LCAO basis

Reference energy: -2055.256231  # eV

Spin-paired calculation

Convergence criteria:
 Maximum [total energy] change in last 3 cyles: 0.0005 eV / valence electron
 Maximum integral of absolute [dens]ity change: 0.0001 electrons / valence electron
 Maximum integral of absolute [eigenst]ate change: 4e-08 eV^2 / valence electron
 Maximum number of scf [iter]ations: 333
 (Square brackets indicate name in SCF output, whereas a 'c' in
 the SCF output indicates the quantity has converged.)

Symmetries present (total): 12

  ( 1  1  0)  ( 1  1  0)  ( 1  0  0)  ( 1  0  0)  ( 0  1  0)  ( 0  1  0)
  ( 0 -1  0)  ( 0 -1  0)  ( 0  1  0)  ( 0  1  0)  (-1 -1  0)  (-1 -1  0)
  ( 0  0  1)  ( 0  0 -1)  ( 0  0  1)  ( 0  0 -1)  ( 0  0  1)  ( 0  0 -1)

  ( 0 -1  0)  ( 0 -1  0)  (-1  0  0)  (-1  0  0)  (-1 -1  0)  (-1 -1  0)
  (-1  0  0)  (-1  0  0)  ( 1  1  0)  ( 1  1  0)  ( 1  0  0)  ( 1  0  0)
  ( 0  0  1)  ( 0  0 -1)  ( 0  0  1)  ( 0  0 -1)  ( 0  0  1)  ( 0  0 -1)
Note: your k-points are not as symmetric as your crystal!

144 k-points: 6 x 6 x 4 Monkhorst-Pack grid
24 k-points in the irreducible part of the Brillouin zone
       k-points in crystal coordinates                weights
   0:     0.08333333   -0.08333333    0.12500000          4/144
   1:     0.08333333   -0.08333333    0.37500000          4/144
   2:     0.08333333    0.08333333    0.12500000          4/144
   3:     0.08333333    0.08333333    0.37500000          4/144
   4:     0.25000000   -0.25000000    0.12500000          4/144
   5:     0.25000000   -0.25000000    0.37500000          4/144
   6:     0.25000000   -0.08333333    0.12500000          8/144
   7:     0.25000000   -0.08333333    0.37500000          8/144
   8:     0.25000000    0.08333333    0.12500000          8/144
   9:     0.25000000    0.08333333    0.37500000          8/144
          ...
  23:     0.41666667    0.41666667    0.37500000          4/144

Wave functions: Plane wave expansion
  Cutoff energy: 600.000 eV
  Number of coefficients (min, max): 1153, 1193
  Pulay-stress correction: 0.000000 eV/Ang^3 (de/decut=0.000000)
  Using FFTW library
  ScaLapack parameters: grid=1x1, blocksize=None
  Wavefunction extrapolation:
    Improved wavefunction reuse through dual PAW basis

Occupation numbers: Fermi-Dirac:
  width: 0.0100  # eV

Eigensolver
   Davidson(niter=2)

Densities:
  Coarse grid: 14*14*40 grid
  Fine grid: 28*28*80 grid
  Total Charge: 0.000000

Density mixing:
  Method: separate
  Backend: pulay
  Linear mixing parameter: 0.05
  old densities: 5
  Damping of long wavelength oscillations: 50

Hamiltonian:
  XC and Coulomb potentials evaluated on a 28*28*80 grid
  Using the PBE Exchange-Correlation functional
  External potential:
    NoExternalPotential

XC parameters: PBE with 2 nearest neighbor stencil

Total number of cores used: 1

Number of atoms: 2
Number of atomic orbitals: 8
Number of bands in calculation: 8
Number of valence electrons: 8
Bands to converge: occupied

... initialized

Initializing position-dependent things.

Density initialized from atomic densities
Creating initial wave functions:
  8 bands from LCAO basis set

        C

       C

Positions:
   0 C      0.000000    0.000000    0.000000    ( 0.0000,  0.0000,  0.0000)
   1 C      0.000000    1.420282    3.350000    ( 0.0000,  0.0000,  0.0000)

Unit cell:
           periodic     x           y           z      points  spacing
  1. axis:    yes    2.460000    0.000000    0.000000    14     0.1522
  2. axis:    yes   -1.230000    2.130422    0.000000    14     0.1522
  3. axis:    yes    0.000000    0.000000    6.700000    40     0.1675

  Lengths:   2.460000   2.460000   6.700000
  Angles:   90.000000  90.000000 120.000000

Effective grid spacing dv^(1/3) = 0.1648

     iter     time        total  log10-change:
                         energy   eigst   dens
iter:   1 08:10:19    -7.167111
iter:   2 08:10:19    -7.164003   -2.24  -1.26
iter:   3 08:10:19    -7.118564   -2.06  -1.29
iter:   4 08:10:20    -7.116628   -2.89  -1.84
iter:   5 08:10:20    -7.116879c  -4.17  -2.16
iter:   6 08:10:20    -7.116160c  -3.37  -2.12
iter:   7 08:10:20    -7.116198c  -3.76  -2.48
iter:   8 08:10:20    -7.116003c  -4.51  -2.55
iter:   9 08:10:21    -7.116037c  -5.96  -2.82
iter:  10 08:10:21    -7.116022c  -5.12  -2.81
iter:  11 08:10:21    -7.116018c  -6.60  -3.61
iter:  12 08:10:21    -7.116018c  -8.13c -4.04c

Converged after 12 iterations.

Dipole moment: (-1.337387, 0.772141, 0.000000) |e|*Ang

Energy contributions relative to reference atoms: (reference = -2055.256231)

Kinetic:         -8.259846
Potential:       +3.138782
External:        +0.000000
XC:              -2.006933
Entropy (-ST):   -0.001172
Local:           +0.012566
SIC:             +0.000000
Free energy:     -7.116604
Extrapolated:    -7.116018

Showing only first 2 kpts
 Kpt  Band  Eigenvalues  Occupancy
  0     2     -2.53662    2.00000
  0     3     -0.17454    2.00000
  0     4      5.07693    0.00000
  0     5      5.12167    0.00000

  1     2     -1.93347    2.00000
  1     3     -0.97813    2.00000
  1     4      5.09023    0.00000
  1     5      5.10887    0.00000

Fermi level: 0.37854

No gap
No difference between direct/indirect transitions

Forces in eV/Ang:
  0 C     0.00000    0.00000    0.00000
  1 C     0.00000    0.00000    0.00000

Date: Fri Jan 31 08:25:37 2025