User:   intvengiel@DESKTOP-CUQAD65
Date:   Fri Jan 31 08:10:18 2025
Arch:   x86_64
Pid:    2549536
CWD:    /home/intvengiel/workshop-physics/temporary
Python: 3.12.8
gpaw:   /home/intvengiel/miniconda3/envs/gpaw-env/lib/python3.12/site-packages/gpaw
_gpaw:  /home/intvengiel/miniconda3/envs/gpaw-env/lib/python3.12/site-packages/
        _gpaw.cpython-312-x86_64-linux-gnu.so
ase:    /home/intvengiel/miniconda3/envs/gpaw-env/lib/python3.12/site-packages/ase (version 3.24.0)
numpy:  /home/intvengiel/miniconda3/envs/gpaw-env/lib/python3.12/site-packages/numpy (version 1.26.4)
scipy:  /home/intvengiel/miniconda3/envs/gpaw-env/lib/python3.12/site-packages/scipy (version 1.15.1)
units:  Angstrom and eV
cores: 1
OpenMP: True
OMP_NUM_THREADS: 1

Input parameters:
  kpts: [10 10 10]
  mode: {ecut: 800.0,
         name: pw}
  occupations: {fixmagmom: False,
                name: fermi-dirac,
                width: 0.01}
  setups: {Ti: :d,1.5}
  xc: PBE

System changes: positions, numbers, cell, pbc, initial_charges, initial_magmoms

Initialize ...

species:
  Ti:
    name: Titanium
    id: d282db07e62ae71292040bf25b25ccdd
    Z: 22.0
    valence: 12
    core: 10
    charge: 0.0
    Hubbard: {U: 1.5,  # eV
              l: 2,
              scale: True}
    file: /home/intvengiel/miniconda3/envs/gpaw-env/share/gpaw/Ti.PBE.gz
    compensation charges: {type: gauss,
                           rc: 0.38,
                           lmax: 2}
    cutoffs: {filter: 2.23,
              core: 1.02}
    projectors:
      #              energy  rcut
      - 3s(2.00)   -62.623   1.270
      - 4s(2.00)    -4.466   1.270
      - 3p(6.00)   -38.862   1.058
      - 4p(0.00)    -1.466   1.058
      - 3d(2.00)    -4.258   1.058
      -  d          22.953   1.058

    # Using partial waves for Ti as LCAO basis

Reference energy: -46448.028563  # eV

Spin-paired calculation

Convergence criteria:
 Maximum [total energy] change in last 3 cyles: 0.0005 eV / valence electron
 Maximum integral of absolute [dens]ity change: 0.0001 electrons / valence electron
 Maximum integral of absolute [eigenst]ate change: 4e-08 eV^2 / valence electron
 Maximum number of scf [iter]ations: 333
 (Square brackets indicate name in SCF output, whereas a 'c' in
 the SCF output indicates the quantity has converged.)

Symmetries present (total): 12

  ( 1  1  0)  ( 1  1  0)  ( 1  0  0)  ( 1  0  0)  ( 0  1  0)  ( 0  1  0)
  ( 0 -1  0)  ( 0 -1  0)  ( 0  1  0)  ( 0  1  0)  (-1 -1  0)  (-1 -1  0)
  ( 0  0  1)  ( 0  0 -1)  ( 0  0  1)  ( 0  0 -1)  ( 0  0  1)  ( 0  0 -1)

  ( 0 -1  0)  ( 0 -1  0)  (-1  0  0)  (-1  0  0)  (-1 -1  0)  (-1 -1  0)
  (-1  0  0)  (-1  0  0)  ( 1  1  0)  ( 1  1  0)  ( 1  0  0)  ( 1  0  0)
  ( 0  0  1)  ( 0  0 -1)  ( 0  0  1)  ( 0  0 -1)  ( 0  0  1)  ( 0  0 -1)
Note: your k-points are not as symmetric as your crystal!

1000 k-points: 10 x 10 x 10 Monkhorst-Pack grid
150 k-points in the irreducible part of the Brillouin zone
       k-points in crystal coordinates                weights
   0:     0.05000000   -0.05000000    0.05000000          4/1000
   1:     0.05000000   -0.05000000    0.15000000          4/1000
   2:     0.05000000   -0.05000000    0.25000000          4/1000
   3:     0.05000000   -0.05000000    0.35000000          4/1000
   4:     0.05000000   -0.05000000    0.45000000          4/1000
   5:     0.05000000    0.05000000    0.05000000          4/1000
   6:     0.05000000    0.05000000    0.15000000          4/1000
   7:     0.05000000    0.05000000    0.25000000          4/1000
   8:     0.05000000    0.05000000    0.35000000          4/1000
   9:     0.05000000    0.05000000    0.45000000          4/1000
          ...
 149:     0.45000000    0.45000000    0.45000000          4/1000

Wave functions: Plane wave expansion
  Cutoff energy: 800.000 eV
  Number of coefficients (min, max): 1796, 1830
  Pulay-stress correction: 0.000000 eV/Ang^3 (de/decut=0.000000)
  Using FFTW library
  ScaLapack parameters: grid=1x1, blocksize=None
  Wavefunction extrapolation:
    Improved wavefunction reuse through dual PAW basis

Occupation numbers: Fermi-Dirac:
  width: 0.0100  # eV

Eigensolver
   Davidson(niter=2)

Densities:
  Coarse grid: 20*20*32 grid
  Fine grid: 40*40*64 grid
  Total Charge: 0.000000

Density mixing:
  Method: separate
  Backend: pulay
  Linear mixing parameter: 0.05
  old densities: 5
  Damping of long wavelength oscillations: 50

Hamiltonian:
  XC and Coulomb potentials evaluated on a 40*40*64 grid
  Using the PBE Exchange-Correlation functional
  External potential:
    NoExternalPotential

XC parameters: PBE with 2 nearest neighbor stencil

Total number of cores used: 1

Number of atoms: 2
Number of atomic orbitals: 26
Number of bands in calculation: 19
Number of valence electrons: 24
Bands to converge: occupied

... initialized

Initializing position-dependent things.

Density initialized from atomic densities
Creating initial wave functions:
  19 bands from LCAO basis set

         Ti

[...]

Positions:
   0 Ti     0.000000    0.000000    0.000000    ( 0.0000,  0.0000,  0.0000)
   1 Ti     0.000000    1.703183    2.342300    ( 0.0000,  0.0000,  0.0000)

Unit cell:
           periodic     x           y           z      points  spacing
  1. axis:    yes    2.950000    0.000000    0.000000    20     0.1277
  2. axis:    yes   -1.475000    2.554775    0.000000    20     0.1277
  3. axis:    yes    0.000000    0.000000    4.684600    32     0.1464

  Lengths:   2.950000   2.950000   4.684600
  Angles:   90.000000  90.000000 120.000000

Effective grid spacing dv^(1/3) = 0.1402

     iter     time        total  log10-change:
                         energy   eigst   dens
iter:   1 08:10:33   -11.680302
iter:   2 08:10:36   -11.554706   -1.24  -1.27
iter:   3 08:10:39   -13.443073   +0.53  -1.29
iter:   4 08:10:41   -12.093326   -1.07  -1.20
iter:   5 08:10:44   -12.557553   -1.21  -1.36
iter:   6 08:10:47   -10.983757   -0.23  -1.28
iter:   7 08:10:50   -11.036044   -0.46  -1.81
iter:   8 08:10:53   -11.080329   -1.24  -2.12
iter:   9 08:10:56   -11.066524   -2.13  -1.93
iter:  10 08:10:58   -10.997361   -1.82  -1.92
iter:  11 08:11:01   -10.996542   -2.74  -2.25
iter:  12 08:11:04   -10.995912c  -3.51  -2.31
iter:  13 08:11:07   -10.993044c  -3.43  -2.33
iter:  14 08:11:10   -10.993730c  -4.64  -2.45
iter:  15 08:11:13   -10.990450c  -3.38  -2.44
iter:  16 08:11:16   -10.997057c  -3.12  -2.49
iter:  17 08:11:19   -10.987717c  -2.13  -2.36
iter:  18 08:11:22   -10.987889c  -3.73  -2.94
iter:  19 08:11:24   -10.987907c  -4.64  -3.32
iter:  20 08:11:27   -10.987887c  -4.24  -3.28
iter:  21 08:11:30   -10.987949c  -4.80  -3.37
iter:  22 08:11:33   -10.987939c  -4.90  -3.43
iter:  23 08:11:36   -10.987944c  -5.30  -3.74
iter:  24 08:11:38   -10.987955c  -4.60  -3.80
iter:  25 08:11:41   -10.987944c  -6.27  -3.65
iter:  26 08:11:44   -10.987938c  -5.36  -3.88
iter:  27 08:11:47   -10.987938c  -6.93  -4.37c
iter:  28 08:11:49   -10.987940c  -6.43  -4.37c
iter:  29 08:11:52   -10.987939c  -6.45  -4.35c
iter:  30 08:11:55   -10.987939c  -7.96c -4.61c

Converged after 30 iterations.

Dipole moment: (-2.384858, 1.376898, 0.000000) |e|*Ang

Energy contributions relative to reference atoms: (reference = -46448.028563)

Kinetic:         +9.290295
Potential:      -10.391259
External:        +0.000000
XC:             -10.028497
Entropy (-ST):   -0.000415
Local:           +0.141729
SIC:             +0.000000
Free energy:    -10.988146
Extrapolated:   -10.987939

Showing only first 2 kpts
 Kpt  Band  Eigenvalues  Occupancy
  0    10      8.87978    0.00000
  0    11      9.18510    0.00000
  0    12      9.40700    0.00000
  0    13      9.55011    0.00000

  1    10      8.66957    0.00016
  1    11      9.15944    0.00000
  1    12      9.34203    0.00000
  1    13      9.40682    0.00000

Fermi level: 8.57510

No gap
No difference between direct/indirect transitions

Forces in eV/Ang:
  0 Ti    0.00000    0.00000    0.00000
  1 Ti   -0.00000    0.00000    0.00000

System changes: cell, numbers, positions

Initialize ...

species:
  Ti:
    name: Titanium
    id: d282db07e62ae71292040bf25b25ccdd
    Z: 22.0
    valence: 12
    core: 10
    charge: 0.0
    Hubbard: {U: 1.5,  # eV
              l: 2,
              scale: True}
    file: /home/intvengiel/miniconda3/envs/gpaw-env/share/gpaw/Ti.PBE.gz
    compensation charges: {type: gauss,
                           rc: 0.38,
                           lmax: 2}
    cutoffs: {filter: 2.23,
              core: 1.02}
    projectors:
      #              energy  rcut
      - 3s(2.00)   -62.623   1.270
      - 4s(2.00)    -4.466   1.270
      - 3p(6.00)   -38.862   1.058
      - 4p(0.00)    -1.466   1.058
      - 3d(2.00)    -4.258   1.058
      -  d          22.953   1.058

[...]

  C:
    name: Carbon
    id: 4aa54d4b901d75f77cc0ea3eec22967b
    Z: 6.0
    valence: 4
    core: 2
    charge: 0.0
    file: /home/intvengiel/miniconda3/envs/gpaw-env/share/gpaw/C.PBE.gz
    compensation charges: {type: gauss,
                           rc: 0.20,
                           lmax: 2}
    cutoffs: {filter: 1.14,
              core: 1.14}
    projectors:
      #              energy  rcut
      - 2s(2.00)   -13.751   0.635
      - 2p(2.00)    -5.284   0.635
      -  s          13.461   0.635
      -  p          21.927   0.635
      -  d           0.000   0.635

    # Using partial waves for C as LCAO basis

Reference energy: -47475.656679  # eV

Spin-paired calculation

Convergence criteria:
 Maximum [total energy] change in last 3 cyles: 0.0005 eV / valence electron
 Maximum integral of absolute [dens]ity change: 0.0001 electrons / valence electron
 Maximum integral of absolute [eigenst]ate change: 4e-08 eV^2 / valence electron
 Maximum number of scf [iter]ations: 333
 (Square brackets indicate name in SCF output, whereas a 'c' in
 the SCF output indicates the quantity has converged.)

Symmetries present (total): 6

  ( 1  1  0)  ( 1  0  0)  ( 0  1  0)  ( 0 -1  0)  (-1  0  0)  (-1 -1  0)
  ( 0 -1  0)  ( 0  1  0)  (-1 -1  0)  (-1  0  0)  ( 1  1  0)  ( 1  0  0)
  ( 0  0  1)  ( 0  0  1)  ( 0  0  1)  ( 0  0  1)  ( 0  0  1)  ( 0  0  1)
Note: your k-points are not as symmetric as your crystal!

1000 k-points: 10 x 10 x 10 Monkhorst-Pack grid
275 k-points in the irreducible part of the Brillouin zone
       k-points in crystal coordinates                weights
   0:     0.05000000   -0.05000000   -0.45000000          2/1000
   1:     0.05000000   -0.05000000   -0.35000000          2/1000
   2:     0.05000000   -0.05000000   -0.25000000          2/1000
   3:     0.05000000   -0.05000000   -0.15000000          2/1000
   4:     0.05000000   -0.05000000   -0.05000000          2/1000
   5:     0.05000000   -0.05000000    0.05000000          2/1000
   6:     0.05000000   -0.05000000    0.15000000          2/1000
   7:     0.05000000   -0.05000000    0.25000000          2/1000
   8:     0.05000000   -0.05000000    0.35000000          2/1000
   9:     0.05000000   -0.05000000    0.45000000          2/1000
          ...
 274:     0.45000000    0.45000000    0.45000000          4/1000

Wave functions: Plane wave expansion
  Cutoff energy: 800.000 eV
  Number of coefficients (min, max): 2011, 2062
  Pulay-stress correction: 0.000000 eV/Ang^3 (de/decut=0.000000)
  Using FFTW library
  ScaLapack parameters: grid=1x1, blocksize=None
  Wavefunction extrapolation:
    Improved wavefunction reuse through dual PAW basis

Occupation numbers: Fermi-Dirac:
  width: 0.0100  # eV

Eigensolver
   Davidson(niter=2)

Densities:
  Coarse grid: 21*21*32 grid
  Fine grid: 42*42*64 grid
  Total Charge: 0.000000

Density mixing:
  Method: separate
  Backend: pulay
  Linear mixing parameter: 0.05
  old densities: 5
  Damping of long wavelength oscillations: 50

Hamiltonian:
  XC and Coulomb potentials evaluated on a 42*42*64 grid
  Using the PBE Exchange-Correlation functional
  External potential:
    NoExternalPotential

XC parameters: PBE with 2 nearest neighbor stencil

Total number of cores used: 1

Number of atoms: 3
Number of atomic orbitals: 30
Number of bands in calculation: 21
Number of valence electrons: 28
Bands to converge: occupied

... initialized

[...]

Density initialized from atomic densities
Creating initial wave functions:
  21 bands from LCAO basis set

        Ti   C

[...]

System changes: positions

[...]

Density initialized from wave functions

[...]

System changes: positions

Initializing position-dependent things.

Density initialized from wave functions

        Ti   C

           Ti

Positions:
   0 Ti     0.000000   -0.000000    3.565523    ( 0.0000,  0.0000,  0.0000)
   1 Ti     1.540698   -0.889523    1.248247    ( 0.0000,  0.0000,  0.0000)
   2 C      1.540698    0.889523    2.406885    ( 0.0000,  0.0000,  0.0000)

Unit cell:
           periodic     x           y           z      points  spacing
  1. axis:    yes    1.540698   -2.668568    0.000000    21     0.1271
  2. axis:    yes    1.540698    2.668568    0.000000    21     0.1271
  3. axis:    yes    0.000000    0.000000    4.813770    32     0.1504

  Lengths:   3.081396   3.081396   4.813770
  Angles:   90.000000  90.000000 120.000000

Effective grid spacing dv^(1/3) = 0.1410

     iter     time        total  log10-change:
                         energy   eigst   dens
iter:   1 08:23:59   -22.049930   -4.37
iter:   2 08:24:10   -22.049924   -5.47  -3.63
iter:   3 08:24:21   -22.049929c  -4.17  -3.67
iter:   4 08:24:32   -22.049906c  -5.60  -3.69
iter:   5 08:24:42   -22.049906c  -5.86  -4.26c
iter:   6 08:24:53   -22.049906c  -5.74  -4.21c
iter:   7 08:25:04   -22.049905c  -6.56  -4.44c
iter:   8 08:25:14   -22.049905c  -6.30  -4.50c
iter:   9 08:25:25   -22.049905c  -7.27  -4.76c
iter:  10 08:25:36   -22.049905c  -7.91c -5.19c

Converged after 10 iterations.

Dipole moment: (-0.000000, -2.143425, -0.000000) |e|*Ang

Energy contributions relative to reference atoms: (reference = -47475.656679)

Kinetic:        +21.436814
Potential:      -23.668842
External:        +0.000000
XC:             -20.025629
Entropy (-ST):   -0.000550
Local:           +0.208027
SIC:             +0.000000
Free energy:    -22.050180
Extrapolated:   -22.049905

Showing only first 2 kpts
 Kpt  Band  Eigenvalues  Occupancy
  0    12      8.07483    2.00000
  0    13      9.18608    0.00000
  0    14      9.69954    0.00000
  0    15      9.77280    0.00000

  1    12      7.79998    2.00000
  1    13      9.39903    0.00000
  1    14      9.78250    0.00000
  1    15      9.82074    0.00000

Fermi level: 8.88729

No gap
No difference between direct/indirect transitions

Forces in eV/Ang:
  0 Ti    0.00000   -0.00000    0.00241
  1 Ti    0.00000    0.00000   -0.00241
  2 C     0.00000    0.00000    0.00000

Date: Fri Jan 31 08:25:37 2025