User:   intvengiel@DESKTOP-CUQAD65
Date:   Fri Jan 24 08:05:36 2025
Arch:   x86_64
Pid:    478592
CWD:    /home/intvengiel/workshop-physics
Python: 3.12.8
gpaw:   /home/intvengiel/miniconda3/envs/gpaw-env/lib/python3.12/site-packages/gpaw
_gpaw:  /home/intvengiel/miniconda3/envs/gpaw-env/lib/python3.12/site-packages/
        _gpaw.cpython-312-x86_64-linux-gnu.so
ase:    /home/intvengiel/miniconda3/envs/gpaw-env/lib/python3.12/site-packages/ase (version 3.24.0)
numpy:  /home/intvengiel/miniconda3/envs/gpaw-env/lib/python3.12/site-packages/numpy (version 1.26.4)
scipy:  /home/intvengiel/miniconda3/envs/gpaw-env/lib/python3.12/site-packages/scipy (version 1.15.1)
units:  Angstrom and eV
cores: 1
OpenMP: True
OMP_NUM_THREADS: 1

Input parameters:
  kpts: [3 3 1]
  mode: {ecut: 850.0,
         name: pw}
  occupations: {fixmagmom: False,
                name: fermi-dirac,
                width: 0.01}
  xc: optPBE-vdW

System changes: positions, numbers, cell, pbc, initial_charges, initial_magmoms

Initialize ...

species:
  N:
    name: Nitrogen
    id: 127ad278b844861e703a8b7cd8635ac7
    Z: 7.0
    valence: 5
    core: 2
    charge: 0.0
    file: /home/intvengiel/miniconda3/envs/gpaw-env/share/gpaw/N.revPBE.gz
    compensation charges: {type: gauss,
                           rc: 0.18,
                           lmax: 2}
    cutoffs: {filter: 1.11,
              core: 0.96}
    projectors:
      #              energy  rcut
      - 2s(2.00)   -18.619   0.603
      - 2p(3.00)    -7.035   0.529
      -  s           8.592   0.603
      -  p          20.177   0.529
      -  d           0.000   0.577

    # Using partial waves for N as LCAO basis

  O:
    name: Oxygen
    id: 8807ab0b23fac600b91fae4a56f9e82e
    Z: 8.0
    valence: 6
    core: 2
    charge: 0.0
    file: /home/intvengiel/miniconda3/envs/gpaw-env/share/gpaw/O.revPBE.gz
    compensation charges: {type: gauss,
                           rc: 0.21,
                           lmax: 2}
    cutoffs: {filter: 1.17,
              core: 0.83}
    projectors:
      #              energy  rcut
      - 2s(2.00)   -23.998   0.688
      - 2p(4.00)    -8.969   0.598
      -  s           3.214   0.688
      -  p          18.243   0.598
      -  d           0.000   0.619

    # Using partial waves for O as LCAO basis

Reference energy: -5568.094284  # eV

Spin-paired calculation

Convergence criteria:
 Maximum [total energy] change in last 3 cyles: 0.0005 eV / valence electron
 Maximum integral of absolute [dens]ity change: 0.0001 electrons / valence electron
 Maximum integral of absolute [eigenst]ate change: 4e-08 eV^2 / valence electron
 Maximum number of scf [iter]ations: 333
 (Square brackets indicate name in SCF output, whereas a 'c' in
 the SCF output indicates the quantity has converged.)

Symmetries present (total): 2

  ( 1  0  0)  ( 1  0  0)
  ( 0  1  0)  ( 0  1  0)
  ( 0  0  1)  ( 0  0 -1)

9 k-points: 3 x 3 x 1 Monkhorst-Pack grid
5 k-points in the irreducible part of the Brillouin zone
       k-points in crystal coordinates                weights
   0:     0.00000000    0.00000000    0.00000000          1/9
   1:     0.00000000    0.33333333    0.00000000          2/9
   2:     0.33333333   -0.33333333    0.00000000          2/9
   3:     0.33333333    0.00000000    0.00000000          2/9
   4:     0.33333333    0.33333333    0.00000000          2/9

Wave functions: Plane wave expansion
  Cutoff energy: 850.000 eV
  Number of coefficients (min, max): 56259, 56316
  Pulay-stress correction: 0.000000 eV/Ang^3 (de/decut=0.000000)
  Using FFTW library
  ScaLapack parameters: grid=1x1, blocksize=None
  Wavefunction extrapolation:
    Improved wavefunction reuse through dual PAW basis

Occupation numbers: Fermi-Dirac:
  width: 0.0100  # eV

Eigensolver
   Davidson(niter=2)

Densities:
  Coarse grid: 70*70*70 grid
  Fine grid: 140*140*140 grid
  Total Charge: 0.000000

Density mixing:
  Method: separate
  Backend: pulay
  Linear mixing parameter: 0.05
  old densities: 5
  Damping of long wavelength oscillations: 50

Hamiltonian:
  XC and Coulomb potentials evaluated on a 140*140*140 grid
  Using the optPBE-vdW Exchange-Correlation functional
  External potential:
    NoExternalPotential

XC parameters: optPBE-vdW with 2 nearest neighbor stencil

Total number of cores used: 1

Number of atoms: 3
Number of atomic orbitals: 12
Number of bands in calculation: 12
Number of valence electrons: 17
Bands to converge: occupied

... initialized

Initializing position-dependent things.

Density initialized from atomic densities
Creating initial wave functions:
  12 bands from LCAO basis set

 |     |          O             |
 |     |        N               |
 |     |       O                |

Positions:
   0 N      4.589650    5.232500    5.000000    ( 0.0000,  0.0000,  0.0000)
   1 O      5.545650    5.963000    5.000000    ( 0.0000,  0.0000,  0.0000)
   2 O      4.454350    4.037000    5.000000    ( 0.0000,  0.0000,  0.0000)

Unit cell:
           periodic     x           y           z      points  spacing
  1. axis:    yes   10.000000    0.000000    0.000000    70     0.1429
  2. axis:    yes    0.000000   10.000000    0.000000    70     0.1429
  3. axis:    yes    0.000000    0.000000   10.000000    70     0.1429

  Lengths:  10.000000  10.000000  10.000000
  Angles:   90.000000  90.000000  90.000000

Effective grid spacing dv^(1/3) = 0.1429

     iter     time        total  log10-change:
                         energy   eigst   dens
iter:   1 08:05:50   -25.616846
iter:   2 08:06:01   -25.440376   -0.91  -1.03
iter:   3 08:06:12   -24.876648   -1.13  -1.08
iter:   4 08:06:24   -24.844441   -1.79  -1.33
iter:   5 08:06:35   -24.807139   -1.57  -1.42
iter:   6 08:06:46   -24.816851   -2.11  -1.83
iter:   7 08:06:57   -24.804632   -2.34  -1.86
iter:   8 08:07:09   -24.794427   -2.57  -2.09
iter:   9 08:07:20   -24.794457   -4.00  -2.69
iter:  10 08:07:31   -24.794375c  -4.18  -2.72
iter:  11 08:07:43   -24.794194c  -4.24  -2.86
iter:  12 08:07:54   -24.794190c  -5.23  -3.36
iter:  13 08:08:06   -24.794190c  -6.13  -3.36
iter:  14 08:08:18   -24.794188c  -6.26  -3.36
iter:  15 08:08:28   -24.794187c  -6.31  -3.42
iter:  16 08:08:39   -24.794190c  -5.52  -3.54
iter:  17 08:08:51   -24.794184c  -5.99  -3.54
iter:  18 08:09:02   -24.794183c  -6.20  -3.69
iter:  19 08:09:14   -24.794182c  -6.82  -3.80
iter:  20 08:09:25   -24.794181c  -7.04  -3.88
iter:  21 08:09:36   -24.794181c  -7.01  -3.92
iter:  22 08:09:47   -24.794182c  -7.44c -3.99
iter:  23 08:09:58   -24.794182c  -7.80c -4.01c

Converged after 23 iterations.

Dipole moment: (-0.045987, 0.025955, 0.000000) |e|*Ang

Energy contributions relative to reference atoms: (reference = -5568.094284)

Kinetic:        +27.049801
Potential:      -29.061364
External:        +0.000000
XC:             -23.324067
Entropy (-ST):   -0.013863
Local:           +0.548379
SIC:             +0.000000
Free energy:    -24.801113
Extrapolated:   -24.794182

Showing only first 2 kpts
 Kpt  Band  Eigenvalues  Occupancy
  0     6     -9.28129    2.00000
  0     7     -8.76439    2.00000
  0     8     -5.91602    1.00323
  0     9     -3.43830    0.00000

  1     6     -9.28129    2.00000
  1     7     -8.76439    2.00000
  1     8     -5.91603    1.00394
  1     9     -3.43823    0.00000

Fermi level: -5.91595

No gap
No difference between direct/indirect transitions

Forces in eV/Ang:
  0 N    -0.31403    0.17835    0.00000
  1 O     0.29185    0.14208    0.00000
  2 O     0.02832   -0.32372    0.00000

System changes: positions

[...]

Density initialized from wave functions
 |     |          O             |
 |     |        N               |
 |     |       O                |

[...]

     iter     time        total  log10-change:
                         energy   eigst   dens
iter:   1 08:10:10   -24.797008   -2.45
iter:   2 08:10:22   -24.796717   -3.90  -2.54
iter:   3 08:10:33   -24.795797c  -3.64  -2.58
iter:   4 08:10:45   -24.795838c  -5.01  -2.92
iter:   5 08:10:56   -24.795712c  -4.97  -2.90
iter:   6 08:11:07   -24.795645c  -4.52  -3.10
iter:   7 08:11:18   -24.795645c  -5.82  -3.65
iter:   8 08:11:30   -24.795642c  -6.09  -3.66
iter:   9 08:11:41   -24.795642c  -6.88  -4.03c
iter:  10 08:11:53   -24.795642c  -7.09  -4.40c
iter:  11 08:12:04   -24.795642c  -7.99c -4.52c

[...]

     iter     time        total  log10-change:
                         energy   eigst   dens
iter:   1 08:12:16   -24.796067   -3.60
iter:   2 08:12:28   -24.796040   -5.13  -3.09
iter:   3 08:12:39   -24.795965c  -4.71  -3.14
iter:   4 08:12:50   -24.795971c  -5.82  -3.48
iter:   5 08:13:02   -24.795958c  -5.97  -3.45
iter:   6 08:13:13   -24.795954c  -5.66  -3.71
iter:   7 08:13:24   -24.795954c  -6.92  -4.30c
iter:   8 08:13:36   -24.795954c  -7.58c -4.28c

[...]

     iter     time        total  log10-change:
                         energy   eigst   dens
iter:   1 08:13:48   -24.795974   -4.80
iter:   2 08:14:00   -24.795974   -6.04  -3.95
iter:   3 08:14:11   -24.795974c  -6.89  -3.96
iter:   4 08:14:22   -24.795973c  -7.58c -3.99
iter:   5 08:14:34   -24.795973c  -6.82  -4.09c
iter:   6 08:14:44   -24.795973c  -7.92c -4.81c

[...]

     iter     time        total  log10-change:
                         energy   eigst   dens
iter:   1 08:14:56   -24.795977   -4.48
iter:   2 08:15:08   -24.795978   -5.78  -3.84
iter:   3 08:15:19   -24.795978c  -6.61  -3.84
iter:   4 08:15:31   -24.795977c  -6.57  -3.81
iter:   5 08:15:43   -24.795977c  -8.19c -4.00c

[...]

     iter     time        total  log10-change:
                         energy   eigst   dens
iter:   1 08:15:55   -24.795979   -5.20
iter:   2 08:16:07   -24.795979   -6.48  -4.13c
iter:   3 08:16:18   -24.795979c  -7.34  -4.14c
iter:   4 08:16:29   -24.795979c  -8.03c -4.18c

[...]

System changes: positions

Initializing position-dependent things.

Density initialized from wave functions
 |     |          O             |
 |     |        N               |
 |     |       O                |

Positions:
   0 N      4.585232    5.235021    5.000000    ( 0.0000,  0.0000,  0.0000)
   1 O      5.548587    5.963411    5.000000    ( 0.0000,  0.0000,  0.0000)
   2 O      4.455533    4.034266    5.000000    ( 0.0000,  0.0000,  0.0000)

Unit cell:
           periodic     x           y           z      points  spacing
  1. axis:    yes   10.000000    0.000000    0.000000    70     0.1429
  2. axis:    yes    0.000000   10.000000    0.000000    70     0.1429
  3. axis:    yes    0.000000    0.000000   10.000000    70     0.1429

  Lengths:  10.000000  10.000000  10.000000
  Angles:   90.000000  90.000000  90.000000

Effective grid spacing dv^(1/3) = 0.1429

     iter     time        total  log10-change:
                         energy   eigst   dens
iter:   1 08:16:42   -24.795978   -5.63
iter:   2 08:16:53   -24.795978   -6.96  -4.24c
iter:   3 08:17:05   -24.795978c  -7.39  -4.27c
iter:   4 08:17:16   -24.795978c  -8.65c -4.46c

Converged after 4 iterations.

Dipole moment: (-0.046448, 0.026228, 0.000000) |e|*Ang

Energy contributions relative to reference atoms: (reference = -5568.094284)

Kinetic:        +26.278157
Potential:      -28.498789
External:        +0.000000
XC:             -23.122649
Entropy (-ST):   -0.013863
Local:           +0.554234
SIC:             +0.000000
Free energy:    -24.802909
Extrapolated:   -24.795978

Showing only first 2 kpts
 Kpt  Band  Eigenvalues  Occupancy
  0     6     -9.26775    2.00000
  0     7     -8.74743    2.00000
  0     8     -5.98989    1.00301
  0     9     -3.49789    0.00000

  1     6     -9.26776    2.00000
  1     7     -8.74743    2.00000
  1     8     -5.98990    1.00376
  1     9     -3.49782    0.00000

Fermi level: -5.98983

No gap
No difference between direct/indirect transitions

Forces in eV/Ang:
  0 N    -0.00576    0.00581    0.00000
  1 O     0.00153   -0.00281    0.00000
  2 O     0.00324   -0.00248    0.00000

Writing to /home/intvengiel/workshop-physics/gas/calculator/optPBE-vdW-calculator.gpw (mode='all')