User:   intvengiel@DESKTOP-CUQAD65
Date:   Thu Jan 23 14:28:30 2025
Arch:   x86_64
Pid:    277067
CWD:    /home/intvengiel/workshop-physics
Python: 3.12.8
gpaw:   /home/intvengiel/miniconda3/envs/gpaw-env/lib/python3.12/site-packages/gpaw
_gpaw:  /home/intvengiel/miniconda3/envs/gpaw-env/lib/python3.12/site-packages/
        _gpaw.cpython-312-x86_64-linux-gnu.so
ase:    /home/intvengiel/miniconda3/envs/gpaw-env/lib/python3.12/site-packages/ase (version 3.24.0)
numpy:  /home/intvengiel/miniconda3/envs/gpaw-env/lib/python3.12/site-packages/numpy (version 1.26.4)
scipy:  /home/intvengiel/miniconda3/envs/gpaw-env/lib/python3.12/site-packages/scipy (version 1.15.1)
units:  Angstrom and eV
cores: 1
OpenMP: True
OMP_NUM_THREADS: 1

Input parameters:
  kpts: [3 3 1]
  mode: {ecut: 800.0,
         name: pw}
  occupations: {fixmagmom: False,
                name: fermi-dirac,
                width: 0.01}
  xc: PBE

System changes: positions, numbers, cell, pbc, initial_charges, initial_magmoms

Initialize ...

species:
  C:
    name: Carbon
    id: 4aa54d4b901d75f77cc0ea3eec22967b
    Z: 6.0
    valence: 4
    core: 2
    charge: 0.0
    file: /home/intvengiel/miniconda3/envs/gpaw-env/share/gpaw/C.PBE.gz
    compensation charges: {type: gauss,
                           rc: 0.20,
                           lmax: 2}
    cutoffs: {filter: 1.14,
              core: 1.14}
    projectors:
      #              energy  rcut
      - 2s(2.00)   -13.751   0.635
      - 2p(2.00)    -5.284   0.635
      -  s          13.461   0.635
      -  p          21.927   0.635
      -  d           0.000   0.635

    # Using partial waves for C as LCAO basis

  O:
    name: Oxygen
    id: 32ecd46bf208036f09c70b0ec9a88b78
    Z: 8.0
    valence: 6
    core: 2
    charge: 0.0
    file: /home/intvengiel/miniconda3/envs/gpaw-env/share/gpaw/O.PBE.gz
    compensation charges: {type: gauss,
                           rc: 0.21,
                           lmax: 2}
    cutoffs: {filter: 1.17,
              core: 0.83}
    projectors:
      #              energy  rcut
      - 2s(2.00)   -23.961   0.688
      - 2p(4.00)    -9.029   0.598
      -  s           3.251   0.688
      -  p          18.182   0.598
      -  d           0.000   0.619

    # Using partial waves for O as LCAO basis

Reference energy: -5109.332718  # eV

Spin-paired calculation

Convergence criteria:
 Maximum [total energy] change in last 3 cyles: 0.0005 eV / valence electron
 Maximum integral of absolute [dens]ity change: 0.0001 electrons / valence electron
 Maximum integral of absolute [eigenst]ate change: 4e-08 eV^2 / valence electron
 Maximum number of scf [iter]ations: 333
 (Square brackets indicate name in SCF output, whereas a 'c' in
 the SCF output indicates the quantity has converged.)

Symmetries present (total): 4

  ( 1  0  0)  ( 1  0  0)  (-1  0  0)  (-1  0  0)
  ( 0  1  0)  ( 0  1  0)  ( 0 -1  0)  ( 0 -1  0)
  ( 0  0  1)  ( 0  0 -1)  ( 0  0  1)  ( 0  0 -1)

9 k-points: 3 x 3 x 1 Monkhorst-Pack grid
5 k-points in the irreducible part of the Brillouin zone
       k-points in crystal coordinates                weights
   0:     0.00000000    0.00000000    0.00000000          1/9
   1:     0.00000000    0.33333333    0.00000000          2/9
   2:     0.33333333   -0.33333333    0.00000000          2/9
   3:     0.33333333    0.00000000    0.00000000          2/9
   4:     0.33333333    0.33333333    0.00000000          2/9

Wave functions: Plane wave expansion
  Cutoff energy: 800.000 eV
  Number of coefficients (min, max): 51342, 51435
  Pulay-stress correction: 0.000000 eV/Ang^3 (de/decut=0.000000)
  Using FFTW library
  ScaLapack parameters: grid=1x1, blocksize=None
  Wavefunction extrapolation:
    Improved wavefunction reuse through dual PAW basis

Occupation numbers: Fermi-Dirac:
  width: 0.0100  # eV

Eigensolver
   Davidson(niter=2)

Densities:
  Coarse grid: 70*70*70 grid
  Fine grid: 140*140*140 grid
  Total Charge: 0.000000

Density mixing:
  Method: separate
  Backend: pulay
  Linear mixing parameter: 0.05
  old densities: 5
  Damping of long wavelength oscillations: 50

Hamiltonian:
  XC and Coulomb potentials evaluated on a 140*140*140 grid
  Using the PBE Exchange-Correlation functional
  External potential:
    NoExternalPotential

XC parameters: PBE with 2 nearest neighbor stencil

Total number of cores used: 1

Number of atoms: 3
Number of atomic orbitals: 12
Number of bands in calculation: 12
Number of valence electrons: 16
Bands to converge: occupied

... initialized

Initializing position-dependent things.

Density initialized from atomic densities
Creating initial wave functions:
  12 bands from LCAO basis set

 |     |      O  C O            |

Positions:
   0 C      5.000000    5.000000    5.000000    ( 0.0000,  0.0000,  0.0000)
   1 O      6.022100    5.567900    5.000000    ( 0.0000,  0.0000,  0.0000)
   2 O      3.977900    4.432100    5.000000    ( 0.0000,  0.0000,  0.0000)

Unit cell:
           periodic     x           y           z      points  spacing
  1. axis:    yes   10.000000    0.000000    0.000000    70     0.1429
  2. axis:    yes    0.000000   10.000000    0.000000    70     0.1429
  3. axis:    yes    0.000000    0.000000   10.000000    70     0.1429

  Lengths:  10.000000  10.000000  10.000000
  Angles:   90.000000  90.000000  90.000000

Effective grid spacing dv^(1/3) = 0.1429

     iter     time        total  log10-change:
                         energy   eigst   dens
iter:   1 14:28:33   -25.132568
iter:   2 14:28:36   -24.802420   -1.21  -0.89
iter:   3 14:28:39   -23.719541   -0.91  -0.93
iter:   4 14:28:41   -23.681785   -2.15  -1.30
iter:   5 14:28:44   -23.675904   -1.10  -1.36
iter:   6 14:28:47   -23.636883   -1.98  -1.68
iter:   7 14:28:50   -23.614149   -2.53  -1.71
iter:   8 14:28:52   -23.590396   -2.09  -1.82
iter:   9 14:28:55   -23.590668   -3.59  -2.75
iter:  10 14:28:58   -23.591378c  -3.81  -2.72
iter:  11 14:29:00   -23.591723c  -4.58  -2.58
iter:  12 14:29:03   -23.591909c  -5.19  -2.53
iter:  13 14:29:06   -23.613418   -2.53  -2.50
iter:  14 14:29:08   -23.592911   -2.09  -1.93
iter:  15 14:29:11   -23.590278   -3.72  -2.41
iter:  16 14:29:14   -23.590285c  -4.78  -3.34
iter:  17 14:29:16   -23.590277c  -5.65  -3.50
iter:  18 14:29:19   -23.590582c  -4.14  -3.55
iter:  19 14:29:22   -23.590307c  -4.04  -2.86
iter:  20 14:29:24   -23.590279c  -5.80  -3.38
iter:  21 14:29:27   -23.590278c  -6.07  -3.85
iter:  22 14:29:29   -23.590278c  -6.86  -4.24c
iter:  23 14:29:32   -23.590278c  -7.06  -4.19c
iter:  24 14:29:35   -23.590278c  -8.30c -4.41c

Converged after 24 iterations.

Dipole moment: (0.000000, 0.000000, 0.000000) |e|*Ang

Energy contributions relative to reference atoms: (reference = -5109.332718)

Kinetic:        +27.078079
Potential:      -30.810860
External:        +0.000000
XC:             -20.340647
Entropy (-ST):   -0.000000
Local:           +0.483150
SIC:             +0.000000
Free energy:    -23.590278
Extrapolated:   -23.590278

Showing only first 2 kpts
 Kpt  Band  Eigenvalues  Occupancy
  0     6     -8.81289    2.00000
  0     7     -8.81251    2.00000
  0     8     -0.81308    0.00000
  0     9     -0.19332    0.00000

  1     6     -8.81289    2.00000
  1     7     -8.81249    2.00000
  1     8     -0.75364    0.00000
  1     9     -0.19340    0.00000

Fermi level: -6.57159

Gap: 7.999 eV
Transition (v -> c):
  (s=0, k=4, n=7, [0.33, 0.33, 0.00]) -> (s=0, k=0, n=8, [0.00, 0.00, 0.00])
Direct/indirect transitions are different
Direct gap: 7.999 eV
Transition at: (s=0, k=0, n=7, [0.00, 0.00, 0.00])

Forces in eV/Ang:
  0 C     0.00000    0.00000    0.00000
  1 O     0.27102    0.15161    0.00000
  2 O    -0.27102   -0.15161    0.00000

System changes: positions

[...]

Density initialized from wave functions
 |     |      O  C O            |

[...]

     iter     time        total  log10-change:
                         energy   eigst   dens
iter:   1 14:29:38   -23.591802   -2.98
iter:   2 14:29:41   -23.591573   -4.82  -2.60
iter:   3 14:29:43   -23.590993c  -3.93  -2.66
iter:   4 14:29:46   -23.591006c  -5.07  -3.13
iter:   5 14:29:49   -23.590956c  -5.05  -3.11
iter:   6 14:29:51   -23.590952c  -5.67  -3.65
iter:   7 14:29:54   -23.590957c  -6.22  -4.05c
iter:   8 14:29:56   -23.590951c  -5.95  -3.68
iter:   9 14:29:59   -23.590951c  -7.78c -4.59c

[...]

System changes: positions

Initializing position-dependent things.

Density initialized from wave functions
 |     |      O  C O            |

Positions:
   0 C      5.000000    5.000000    5.000000    ( 0.0000,  0.0000,  0.0000)
   1 O      6.024698    5.569369    5.000000    ( 0.0000,  0.0000,  0.0000)
   2 O      3.975302    4.430631    5.000000    ( 0.0000,  0.0000,  0.0000)

Unit cell:
           periodic     x           y           z      points  spacing
  1. axis:    yes   10.000000    0.000000    0.000000    70     0.1429
  2. axis:    yes    0.000000   10.000000    0.000000    70     0.1429
  3. axis:    yes    0.000000    0.000000   10.000000    70     0.1429

  Lengths:  10.000000  10.000000  10.000000
  Angles:   90.000000  90.000000  90.000000

Effective grid spacing dv^(1/3) = 0.1429

     iter     time        total  log10-change:
                         energy   eigst   dens
iter:   1 14:30:02   -23.591272   -3.96
iter:   2 14:30:05   -23.591247   -5.80  -3.08
iter:   3 14:30:07   -23.591183c  -4.89  -3.14
iter:   4 14:30:10   -23.591184c  -6.08  -3.62
iter:   5 14:30:12   -23.591179c  -6.04  -3.60
iter:   6 14:30:15   -23.591179c  -6.61  -4.11c
iter:   7 14:30:18   -23.591179c  -7.17  -4.53c
iter:   8 14:30:20   -23.591179c  -6.86  -4.15c
iter:   9 14:30:23   -23.591179c  -8.76c -5.01c

Converged after 9 iterations.

Dipole moment: (0.000000, 0.000000, 0.000000) |e|*Ang

Energy contributions relative to reference atoms: (reference = -5109.332718)

Kinetic:        +26.320438
Potential:      -30.218368
External:        +0.000000
XC:             -20.176774
Entropy (-ST):   -0.000000
Local:           +0.483526
SIC:             +0.000000
Free energy:    -23.591179
Extrapolated:   -23.591179

Showing only first 2 kpts
 Kpt  Band  Eigenvalues  Occupancy
  0     6     -8.81139    2.00000
  0     7     -8.81101    2.00000
  0     8     -0.82356    0.00000
  0     9     -0.24531    0.00000

  1     6     -8.81139    2.00000
  1     7     -8.81099    2.00000
  1     8     -0.76513    0.00000
  1     9     -0.24538    0.00000

Fermi level: -6.57159

Gap: 7.987 eV
Transition (v -> c):
  (s=0, k=4, n=7, [0.33, 0.33, 0.00]) -> (s=0, k=0, n=8, [0.00, 0.00, 0.00])
Direct/indirect transitions are different
Direct gap: 7.987 eV
Transition at: (s=0, k=0, n=7, [0.00, 0.00, 0.00])

Forces in eV/Ang:
  0 C     0.00000    0.00000    0.00000
  1 O    -0.00414   -0.00118    0.00000
  2 O     0.00414    0.00118    0.00000

Writing to /home/intvengiel/workshop-physics/gas/calculator/PBE-calculator.gpw (mode='all')