User:   intvengiel@DESKTOP-CUQAD65
Date:   Thu Jan 30 08:28:23 2025
Arch:   x86_64
Pid:    2290544
CWD:    /home/intvengiel/workshop-physics
Python: 3.12.8
gpaw:   /home/intvengiel/miniconda3/envs/gpaw-env/lib/python3.12/site-packages/gpaw
_gpaw:  /home/intvengiel/miniconda3/envs/gpaw-env/lib/python3.12/site-packages/
        _gpaw.cpython-312-x86_64-linux-gnu.so
ase:    /home/intvengiel/miniconda3/envs/gpaw-env/lib/python3.12/site-packages/ase (version 3.24.0)
numpy:  /home/intvengiel/miniconda3/envs/gpaw-env/lib/python3.12/site-packages/numpy (version 1.26.4)
scipy:  /home/intvengiel/miniconda3/envs/gpaw-env/lib/python3.12/site-packages/scipy (version 1.15.1)
units:  Angstrom and eV
cores: 1
OpenMP: True
OMP_NUM_THREADS: 1

Input parameters:
  kpts: [5 5 5]
  mode: {ecut: 700.0,
         name: pw}
  occupations: {fixmagmom: False,
                name: fermi-dirac,
                width: 0.1}
  setups: {Ti: :d,1.6}
  xc: PBE

System changes: positions, numbers, cell, pbc, initial_charges, initial_magmoms

Initialize ...

species:
  Ti:
    name: Titanium
    id: d282db07e62ae71292040bf25b25ccdd
    Z: 22.0
    valence: 12
    core: 10
    charge: 0.0
    Hubbard: {U: 1.6,  # eV
              l: 2,
              scale: True}
    file: /home/intvengiel/miniconda3/envs/gpaw-env/share/gpaw/Ti.PBE.gz
    compensation charges: {type: gauss,
                           rc: 0.38,
                           lmax: 2}
    cutoffs: {filter: 2.23,
              core: 1.02}
    projectors:
      #              energy  rcut
      - 3s(2.00)   -62.623   1.270
      - 4s(2.00)    -4.466   1.270
      - 3p(6.00)   -38.862   1.058
      - 4p(0.00)    -1.466   1.058
      - 3d(2.00)    -4.258   1.058
      -  d          22.953   1.058

    # Using partial waves for Ti as LCAO basis

  C:
    name: Carbon
    id: 4aa54d4b901d75f77cc0ea3eec22967b
    Z: 6.0
    valence: 4
    core: 2
    charge: 0.0
    file: /home/intvengiel/miniconda3/envs/gpaw-env/share/gpaw/C.PBE.gz
    compensation charges: {type: gauss,
                           rc: 0.20,
                           lmax: 2}
    cutoffs: {filter: 1.14,
              core: 1.14}
    projectors:
      #              energy  rcut
      - 2s(2.00)   -13.751   0.635
      - 2p(2.00)    -5.284   0.635
      -  s          13.461   0.635
      -  p          21.927   0.635
      -  d           0.000   0.635

[...]

  O:
    name: Oxygen
    id: 32ecd46bf208036f09c70b0ec9a88b78
    Z: 8.0
    valence: 6
    core: 2
    charge: 0.0
    file: /home/intvengiel/miniconda3/envs/gpaw-env/share/gpaw/O.PBE.gz
    compensation charges: {type: gauss,
                           rc: 0.21,
                           lmax: 2}
    cutoffs: {filter: 1.17,
              core: 0.83}
    projectors:
      #              energy  rcut
      - 2s(2.00)   -23.961   0.688
      - 2p(4.00)    -9.029   0.598
      -  s           3.251   0.688
      -  p          18.182   0.598
      -  d           0.000   0.619

    # Using partial waves for O as LCAO basis

Reference energy: -195011.959433  # eV

Spin-paired calculation

Convergence criteria:
 Maximum [total energy] change in last 3 cyles: 0.0005 eV / valence electron
 Maximum integral of absolute [dens]ity change: 0.0001 electrons / valence electron
 Maximum integral of absolute [eigenst]ate change: 4e-08 eV^2 / valence electron
 Maximum number of scf [iter]ations: 333
 (Square brackets indicate name in SCF output, whereas a 'c' in
 the SCF output indicates the quantity has converged.)

Symmetries present (total): 1

  ( 1  0  0)
  ( 0  1  0)
  ( 0  0  1)

125 k-points: 5 x 5 x 5 Monkhorst-Pack grid
63 k-points in the irreducible part of the Brillouin zone
       k-points in crystal coordinates                weights
   0:     0.00000000    0.00000000    0.00000000          1/125
   1:     0.00000000    0.00000000    0.20000000          2/125
   2:     0.00000000    0.00000000    0.40000000          2/125
   3:     0.00000000    0.20000000   -0.40000000          2/125
   4:     0.00000000    0.20000000   -0.20000000          2/125
   5:     0.00000000    0.20000000    0.00000000          2/125
   6:     0.00000000    0.20000000    0.20000000          2/125
   7:     0.00000000    0.20000000    0.40000000          2/125
   8:     0.00000000    0.40000000   -0.40000000          2/125
   9:     0.00000000    0.40000000   -0.20000000          2/125
          ...
  62:     0.40000000    0.40000000    0.40000000          2/125

Wave functions: Plane wave expansion
  Cutoff energy: 700.000 eV
  Number of coefficients (min, max): 6647, 6679
  Pulay-stress correction: 0.000000 eV/Ang^3 (de/decut=0.000000)
  Using FFTW library
  ScaLapack parameters: grid=1x1, blocksize=None
  Wavefunction extrapolation:
    Improved wavefunction reuse through dual PAW basis

Occupation numbers: Fermi-Dirac:
  width: 0.1000  # eV

Eigensolver
   Davidson(niter=2)

Densities:
  Coarse grid: 40*40*30 grid
  Fine grid: 80*80*60 grid
  Total Charge: 0.000000

Density mixing:
  Method: separate
  Backend: pulay
  Linear mixing parameter: 0.05
  old densities: 5
  Damping of long wavelength oscillations: 50

Hamiltonian:
  XC and Coulomb potentials evaluated on a 80*80*60 grid
  Using the PBE Exchange-Correlation functional
  External potential:
    NoExternalPotential

XC parameters: PBE with 2 nearest neighbor stencil

Total number of cores used: 1

Number of atoms: 15
Number of atomic orbitals: 132
Number of bands in calculation: 81
Number of valence electrons: 128
Bands to converge: occupied

... initialized

Initializing position-dependent things.

Density initialized from atomic densities
Creating initial wave functions:
  81 bands from LCAO basis set

                 O  C O

               Ti
                   C
         Ti      Ti
              C      C
           Ti     Ti
                C
            Ti      Ti
               Ti

Positions:
   0 Ti     0.000000    0.000000    3.586778    ( 0.0000,  0.0000,  0.0000)
   1 Ti     1.540698   -0.889523    1.226991    ( 0.0000,  0.0000,  0.0000)
   2 C      1.540698    0.889523    2.406886    ( 0.0000,  0.0000,  0.0000)
   3 Ti     1.540698    2.668568    3.586778    ( 0.0000,  0.0000,  0.0000)
   4 Ti     3.081396    1.779045    1.226991    ( 0.0000,  0.0000,  0.0000)
   5 C      3.081396    3.558090    2.406886    ( 0.0000,  0.0000,  0.0000)
   6 Ti     1.540698   -2.668568    3.586778    ( 0.0000,  0.0000,  0.0000)
   7 Ti     3.081396   -3.558090    1.226991    ( 0.0000,  0.0000,  0.0000)
   8 C      3.081396   -1.779045    2.406886    ( 0.0000,  0.0000,  0.0000)
   9 Ti     3.081396   -0.000000    3.586778    ( 0.0000,  0.0000,  0.0000)
  10 Ti     4.622095   -0.889523    1.226991    ( 0.0000,  0.0000,  0.0000)
  11 C      4.622095    0.889523    2.406886    ( 0.0000,  0.0000,  0.0000)
  12 C      3.540698    2.889523    9.086778    ( 0.0000,  0.0000,  0.0000)
  13 O      4.713033    2.889523    9.086778    ( 0.0000,  0.0000,  0.0000)
  14 O      2.368363    2.889523    9.086778    ( 0.0000,  0.0000,  0.0000)

Unit cell:
           periodic     x           y           z      points  spacing
  1. axis:    yes    3.081396   -5.337135    0.000000    40     0.1334
  2. axis:    yes    3.081396    5.337135    0.000000    40     0.1334
  3. axis:    yes    0.000000    0.000000    4.813770    30     0.1605

  Lengths:   6.162793   6.162793   4.813770
  Angles:   90.000000  90.000000 120.000000

Effective grid spacing dv^(1/3) = 0.1489

     iter     time        total  log10-change:
                         energy   eigst   dens
iter:   1 08:31:49    39.945672
iter:   2 08:32:17    52.444065   -0.13  -0.91
iter:   3 08:32:44    64.711802   +0.45  -0.99
iter:   4 08:33:12    64.427519   -0.05  -1.22
iter:   5 08:33:40    63.626339   -0.48  -1.31
iter:   6 08:34:12    61.010463   -0.09  -1.47
iter:   7 08:34:39    62.169201   -1.16  -1.56
iter:   8 08:35:07    62.553714   -0.97  -1.72
iter:   9 08:35:34    62.551832   -1.39  -1.88
iter:  10 08:36:01    62.500996c  -1.42  -2.07
iter:  11 08:36:28    62.526579c  -2.01  -2.16
iter:  12 08:36:56    62.547274c  -1.99  -2.31
iter:  13 08:37:23    62.570397c  -2.37  -2.42
iter:  14 08:37:50    62.573404c  -3.17  -2.58
iter:  15 08:38:18    62.576267c  -2.67  -2.64
iter:  16 08:38:45    62.579325c  -3.23  -2.75
iter:  17 08:39:13    62.580026c  -4.09  -2.93
iter:  18 08:39:41    62.579948c  -4.12  -2.99
iter:  19 08:40:08    62.577938c  -3.66  -3.10
iter:  20 08:40:37    62.578472c  -4.35  -3.17
iter:  21 08:41:04    62.578607c  -4.76  -3.30
iter:  22 08:41:30    62.578588c  -4.11  -3.37
iter:  23 08:41:56    62.578659c  -4.35  -3.53
iter:  24 08:42:22    62.578699c  -5.46  -3.72
iter:  25 08:42:47    62.578677c  -5.25  -3.75
iter:  26 08:43:13    62.578673c  -5.19  -3.84
iter:  27 08:43:39    62.578664c  -5.63  -4.02c
iter:  28 08:44:05    62.578669c  -6.17  -4.23c
iter:  29 08:44:31    62.578677c  -6.35  -4.28c
iter:  30 08:44:58    62.578668c  -6.09  -4.32c
iter:  31 08:45:25    62.578671c  -7.26  -4.51c
iter:  32 08:45:53    62.578675c  -6.54  -4.56c
iter:  33 08:46:19    62.578673c  -6.79  -4.60c
iter:  34 08:46:44    62.578676c  -7.26  -4.83c
iter:  35 08:47:10    62.578676c  -7.78c -5.04c

Converged after 35 iterations.

Dipole moment: (-4.416457, -11.383693, 6.843636) |e|*Ang

Energy contributions relative to reference atoms: (reference = -195011.959433)

Kinetic:       +708.706165
Potential:     -460.457278
External:        +0.000000
XC:            -181.686272
Entropy (-ST):   -0.278749
Local:           -3.844564
SIC:             +0.000000
Free energy:    +62.439301
Extrapolated:   +62.578676

Showing only first 2 kpts
 Kpt  Band  Eigenvalues  Occupancy
  0    62     10.19998    1.93651
  0    63     10.31994    1.80375
  0    64     10.63077    0.58217
  0    65     10.96532    0.02853

  1    62     10.23564    1.91053
  1    63     10.35035    1.74295
  1    64     10.57829    0.81936
  1    65     11.00704    0.01889

Fermi level: 10.54176

No gap
No difference between direct/indirect transitions

Forces in eV/Ang:
  0 Ti    0.43915    1.03940   -1.08961
  1 Ti   -0.31900    0.48375    1.03369
  2 C    -0.07687   -1.01151   -0.56459
  3 Ti -100.28694  -26.65989  -80.46326
  4 Ti    0.40322   -1.12171    3.08090
  5 C    -1.27274    1.87124   -4.95875
  6 Ti  -29.14667 -141.58957 -438.84140
  7 Ti    0.02959   -0.74607    1.58757
  8 C     0.00911    2.08477   -2.33886
  9 Ti    0.39627   -0.36966   -0.93140
 10 Ti   -0.28679    0.30902    1.38677
 11 C     0.12208   -1.96700   -1.66221
 12 C   -43.31007    6.22541   20.72667
 13 O    92.85285  135.82773  422.66564
 14 O    80.44946   25.62558   80.36974

System changes: positions

[...]

Density initialized from wave functions

[...]

               Ti
                    C
          Ti     Ti
              C       C
            Ti    Ti
                C
             Ti      Ti
               Ti

[...]

               Ti  C
          Ti     Ti
              C       C
            Ti    Ti
                C
             Ti      Ti
               Ti

[...]

                 O  C  O

[...]

                 O    O
                   C

              Ti   C
         Ti      Ti
              C      C
             Ti   Ti
                C
             Ti     Ti
               Ti

[...]

              Ti   C
         Ti      Ti
              C      C
             Ti   Ti
             Ti C   Ti

               Ti

[...]

                 O   O

[...]

              Ti   C
         Ti      Ti
             C    Ti C
            Ti
             Ti C   Ti

[...]

              Ti   C
         Ti      Ti
             C    Ti C
            Ti
            Ti  C   Ti

[...]

              Ti   C
         Ti      Ti
             C    Ti C
            Ti
            Ti  C
                    Ti
               Ti

[...]

              Ti   C
         Ti      Ti
             C    Ti C
           Ti
               C
             Ti     Ti
              Ti

[...]

              Ti   C
         Ti      Ti
             C       C
           Ti     Ti
               C    Ti
             Ti
              Ti

[...]

              Ti   C
         Ti      Ti
             C       C
           Ti     Ti
             TiC    Ti

[...]

              Ti   C
         Ti      Ti
             C       C
           Ti     Ti
             TiC    Ti

[...]

              Ti   C
         Ti      Ti
             C       C
           Ti     Ti
             Ti C   Ti

[...]

              Ti
                   C
         Ti      Ti
              C      C
           Ti     Ti
             Ti C   Ti

[...]

               Ti
                   C
         Ti      Ti
              C      C
           Ti     Ti
             Ti C   Ti

[...]

               Ti
                   C
         Ti      Ti
              C      C
           Ti   C Ti
             Ti     Ti

[...]

     iter     time        total  log10-change:
                         energy   eigst   dens
iter:   1 15:21:17  -113.906764   -0.75
iter:   2 15:21:42  -113.898609   -1.66  -2.08
iter:   3 15:22:09  -113.847933c  -2.10  -2.13
iter:   4 15:22:35  -113.832895   -2.63  -2.30
iter:   5 15:23:01  -113.823706c  -2.38  -2.41
iter:   6 15:23:27  -113.825864c  -2.87  -2.70
iter:   7 15:23:53  -113.821091c  -3.26  -2.74
iter:   8 15:24:19  -113.820700c  -4.03  -2.91
iter:   9 15:24:45  -113.820912c  -3.87  -3.02
iter:  10 15:25:11  -113.821031c  -4.58  -3.21
iter:  11 15:25:37  -113.820949c  -5.05  -3.28
iter:  12 15:26:03  -113.820988c  -4.33  -3.37
iter:  13 15:26:31  -113.820968c  -5.02  -3.69
iter:  14 15:26:56  -113.820946c  -5.39  -3.76
iter:  15 15:27:22  -113.820976c  -5.93  -3.85
iter:  16 15:27:49  -113.820969c  -5.95  -3.93
iter:  17 15:28:15  -113.820966c  -6.13  -4.01c
iter:  18 15:28:43  -113.820959c  -6.01  -4.06c
iter:  19 15:29:12  -113.820954c  -6.25  -4.24c
iter:  20 15:29:40  -113.820955c  -6.56  -4.33c
iter:  21 15:30:06  -113.820959c  -6.97  -4.58c
iter:  22 15:30:32  -113.820961c  -7.12  -4.68c
iter:  23 15:30:58  -113.820962c  -7.55c -4.81c

[...]

               Ti
                   C
         Ti      Ti
              C      C
           Ti   C Ti
             Ti     Ti

[...]

               Ti  C
         Ti      Ti
              C      C
           Ti   C Ti
             Ti     Ti

[...]

     iter     time        total  log10-change:
                         energy   eigst   dens
iter:   1 16:51:26  -114.171034   -4.58
iter:   2 16:51:52  -114.171030   -5.52  -3.97
iter:   3 16:52:18  -114.171023c  -5.77  -4.03c
iter:   4 16:52:45  -114.171022c  -6.58  -4.25c
iter:   5 16:53:11  -114.171022c  -6.20  -4.30c
iter:   6 16:53:37  -114.171021c  -6.72  -4.64c
iter:   7 16:54:03  -114.171019c  -7.20  -4.65c
iter:   8 16:54:28  -114.171019c  -7.70c -4.83c

[...]

     iter     time        total  log10-change:
                         energy   eigst   dens
iter:   1 16:55:00  -114.171043   -5.37
iter:   2 16:55:26  -114.171041   -6.33  -4.24c
iter:   3 16:55:52  -114.171041c  -6.07  -4.33c
iter:   4 16:56:17  -114.171039c  -7.36  -4.67c
iter:   5 16:56:45  -114.171040c  -7.15  -4.70c
iter:   6 16:57:12  -114.171041c  -7.01  -4.91c
iter:   7 16:57:37  -114.171040c  -7.87c -4.94c

[...]

     iter     time        total  log10-change:
                         energy   eigst   dens
iter:   1 17:32:43  -114.171045   -4.69
iter:   2 17:33:10  -114.171036   -5.67  -3.93
iter:   3 17:33:38  -114.171029c  -5.68  -4.00c
iter:   4 17:34:05  -114.171028c  -6.60  -4.26c
iter:   5 17:34:33  -114.171033c  -6.06  -4.33c
iter:   6 17:35:00  -114.171039c  -6.30  -4.58c
iter:   7 17:35:28  -114.171034c  -7.02  -4.55c
iter:   8 17:35:55  -114.171033c  -7.01  -4.79c
iter:   9 17:36:22  -114.171033c  -7.42c -4.96c

[...]

     iter     time        total  log10-change:
                         energy   eigst   dens
iter:   1 17:41:35  -114.171137   -4.85
iter:   2 17:42:01  -114.171134   -5.82  -4.03c
iter:   3 17:42:29  -114.171134c  -6.01  -4.13c
iter:   4 17:42:56  -114.171133c  -6.81  -4.38c
iter:   5 17:43:23  -114.171136c  -6.30  -4.46c
iter:   6 17:43:50  -114.171134c  -7.09  -4.75c
iter:   7 17:44:18  -114.171131c  -7.09  -4.71c
iter:   8 17:44:45  -114.171133c  -7.95c -5.00c

[...]

System changes: positions

Initializing position-dependent things.

Density initialized from wave functions

               O      O

[...]

               Ti  C
         Ti      Ti
              C      C
           Ti   C Ti
             Ti     Ti

               Ti

Positions:
   0 Ti     0.195365    0.210183    3.385072    ( 0.0000,  0.0000,  0.0000)
   1 Ti     1.735649   -0.722882    1.163063    ( 0.0000,  0.0000,  0.0000)
   2 C      1.734914    1.026685    2.240047    ( 0.0000,  0.0000,  0.0000)
   3 Ti     1.735677    2.721219    3.304191    ( 0.0000,  0.0000,  0.0000)
   4 Ti     3.234799    1.869466    1.006592    ( 0.0000,  0.0000,  0.0000)
   5 C      3.266934    3.744176    2.361806    ( 0.0000,  0.0000,  0.0000)
   6 Ti     1.734758   -2.557515    3.269293    ( 0.0000,  0.0000,  0.0000)
   7 Ti     3.316264   -3.468157    1.006811    ( 0.0000,  0.0000,  0.0000)
   8 C      3.284726   -1.593790    2.362880    ( 0.0000,  0.0000,  0.0000)
   9 Ti     3.274889    0.210084    3.385452    ( 0.0000,  0.0000,  0.0000)
  10 Ti     4.816040   -0.663132    1.205472    ( 0.0000,  0.0000,  0.0000)
  11 C      4.816183    1.074488    2.243698    ( 0.0000,  0.0000,  0.0000)
  12 C      1.735258    0.775826    9.411637    ( 0.0000,  0.0000,  0.0000)
  13 O      4.816220    2.935238    9.892610    ( 0.0000,  0.0000,  0.0000)
  14 O      1.732894    3.093425    9.896263    ( 0.0000,  0.0000,  0.0000)

Unit cell:
           periodic     x           y           z      points  spacing
  1. axis:    yes    3.081396   -5.337135    0.000000    40     0.1334
  2. axis:    yes    3.081396    5.337135    0.000000    40     0.1334
  3. axis:    yes    0.000000    0.000000    4.813770    30     0.1605

  Lengths:   6.162793   6.162793   4.813770
  Angles:   90.000000  90.000000 120.000000

Effective grid spacing dv^(1/3) = 0.1489

     iter     time        total  log10-change:
                         energy   eigst   dens
iter:   1 17:45:19  -114.171181   -4.38
iter:   2 17:45:46  -114.171161   -5.35  -3.78
iter:   3 17:46:13  -114.171151c  -5.50  -3.89
iter:   4 17:46:41  -114.171147c  -6.33  -4.16c
iter:   5 17:47:08  -114.171149c  -5.83  -4.23c
iter:   6 17:47:35  -114.171148c  -6.57  -4.52c
iter:   7 17:48:02  -114.171142c  -6.44  -4.47c
iter:   8 17:48:30  -114.171146c  -7.37  -4.79c
iter:   9 17:48:57  -114.171146c  -7.59c -4.82c

Converged after 9 iterations.

Dipole moment: (-7.403812, -18.165714, -10.501951) |e|*Ang

Energy contributions relative to reference atoms: (reference = -195011.959433)

Kinetic:       +190.281194
Potential:     -184.030362
External:        +0.000000
XC:            -121.512912
Entropy (-ST):   -0.234561
Local:           +1.208214
SIC:             +0.000000
Free energy:   -114.288427
Extrapolated:  -114.171146

Showing only first 2 kpts
 Kpt  Band  Eigenvalues  Occupancy
  0    62     10.01683    1.99914
  0    63     11.19649    0.03442
  0    64     11.43025    0.00338
  0    65     11.55158    0.00100

  1    62      9.96221    1.99950
  1    63     11.02981    0.16973
  1    64     11.15567    0.05133
  1    65     11.50944    0.00153

Fermi level: 10.79201

No gap
No difference between direct/indirect transitions

Forces in eV/Ang:
  0 Ti   -0.00160   -0.00106    0.00592
  1 Ti   -0.00319   -0.00092    0.00044
  2 C     0.00328   -0.00512   -0.00072
  3 Ti   -0.00271    0.00407   -0.00136
  4 Ti   -0.00352    0.00025   -0.00078
  5 C     0.00134   -0.00607    0.00316
  6 Ti   -0.00134   -0.00005   -0.00731
  7 Ti    0.00238    0.00056   -0.00025
  8 C    -0.00416    0.00414   -0.00060
  9 Ti    0.00019   -0.00036    0.00111
 10 Ti    0.00281   -0.00462   -0.00089
 11 C     0.00137   -0.00270   -0.00569
 12 C    -0.00178    0.00520    0.00720
 13 O     0.00340    0.00650    0.00033
 14 O     0.00520   -0.00105   -0.00173

Writing to /home/intvengiel/workshop-physics/system/calculator/CO2-PBEU-1-1-calculator.gpw (mode='all')