User:   intvengiel@DESKTOP-CUQAD65
Date:   Thu Jan 30 18:04:06 2025
Arch:   x86_64
Pid:    2394778
CWD:    /home/intvengiel/workshop-physics
Python: 3.12.8
gpaw:   /home/intvengiel/miniconda3/envs/gpaw-env/lib/python3.12/site-packages/gpaw
_gpaw:  /home/intvengiel/miniconda3/envs/gpaw-env/lib/python3.12/site-packages/
        _gpaw.cpython-312-x86_64-linux-gnu.so
ase:    /home/intvengiel/miniconda3/envs/gpaw-env/lib/python3.12/site-packages/ase (version 3.24.0)
numpy:  /home/intvengiel/miniconda3/envs/gpaw-env/lib/python3.12/site-packages/numpy (version 1.26.4)
scipy:  /home/intvengiel/miniconda3/envs/gpaw-env/lib/python3.12/site-packages/scipy (version 1.15.1)
units:  Angstrom and eV
cores: 1
OpenMP: True
OMP_NUM_THREADS: 1

Input parameters:
  kpts: [5 5 5]
  mode: {ecut: 700.0,
         name: pw}
  occupations: {fixmagmom: False,
                name: fermi-dirac,
                width: 0.1}
  setups: {Ti: :d,1.6}
  xc: PBE

System changes: positions, numbers, cell, pbc, initial_charges, initial_magmoms

Initialize ...

species:
  Ti:
    name: Titanium
    id: d282db07e62ae71292040bf25b25ccdd
    Z: 22.0
    valence: 12
    core: 10
    charge: 0.0
    Hubbard: {U: 1.6,  # eV
              l: 2,
              scale: True}
    file: /home/intvengiel/miniconda3/envs/gpaw-env/share/gpaw/Ti.PBE.gz
    compensation charges: {type: gauss,
                           rc: 0.38,
                           lmax: 2}
    cutoffs: {filter: 2.23,
              core: 1.02}
    projectors:
      #              energy  rcut
      - 3s(2.00)   -62.623   1.270
      - 4s(2.00)    -4.466   1.270
      - 3p(6.00)   -38.862   1.058
      - 4p(0.00)    -1.466   1.058
      - 3d(2.00)    -4.258   1.058
      -  d          22.953   1.058

    # Using partial waves for Ti as LCAO basis

  C:
    name: Carbon
    id: 4aa54d4b901d75f77cc0ea3eec22967b
    Z: 6.0
    valence: 4
    core: 2
    charge: 0.0
    file: /home/intvengiel/miniconda3/envs/gpaw-env/share/gpaw/C.PBE.gz
    compensation charges: {type: gauss,
                           rc: 0.20,
                           lmax: 2}
    cutoffs: {filter: 1.14,
              core: 1.14}
    projectors:
      #              energy  rcut
      - 2s(2.00)   -13.751   0.635
      - 2p(2.00)    -5.284   0.635
      -  s          13.461   0.635
      -  p          21.927   0.635
      -  d           0.000   0.635

[...]

  N:
    name: Nitrogen
    id: f7500608b86eaa90eef8b1d9a670dc53
    Z: 7.0
    valence: 5
    core: 2
    charge: 0.0
    file: /home/intvengiel/miniconda3/envs/gpaw-env/share/gpaw/N.PBE.gz
    compensation charges: {type: gauss,
                           rc: 0.18,
                           lmax: 2}
    cutoffs: {filter: 1.11,
              core: 0.96}
    projectors:
      #              energy  rcut
      - 2s(2.00)   -18.583   0.603
      - 2p(3.00)    -7.089   0.529
      -  s           8.629   0.603
      -  p          20.123   0.529
      -  d           0.000   0.577

[...]

  O:
    name: Oxygen
    id: 32ecd46bf208036f09c70b0ec9a88b78
    Z: 8.0
    valence: 6
    core: 2
    charge: 0.0
    file: /home/intvengiel/miniconda3/envs/gpaw-env/share/gpaw/O.PBE.gz
    compensation charges: {type: gauss,
                           rc: 0.21,
                           lmax: 2}
    cutoffs: {filter: 1.17,
              core: 0.83}
    projectors:
      #              energy  rcut
      - 2s(2.00)   -23.961   0.688
      - 2p(4.00)    -9.029   0.598
      -  s           3.251   0.688
      -  p          18.182   0.598
      -  d           0.000   0.619

    # Using partial waves for O as LCAO basis

Reference energy: -195466.052822  # eV

Spin-paired calculation

Convergence criteria:
 Maximum [total energy] change in last 3 cyles: 0.0005 eV / valence electron
 Maximum integral of absolute [dens]ity change: 0.0001 electrons / valence electron
 Maximum integral of absolute [eigenst]ate change: 4e-08 eV^2 / valence electron
 Maximum number of scf [iter]ations: 333
 (Square brackets indicate name in SCF output, whereas a 'c' in
 the SCF output indicates the quantity has converged.)

Symmetries present (total): 1

  ( 1  0  0)
  ( 0  1  0)
  ( 0  0  1)

125 k-points: 5 x 5 x 5 Monkhorst-Pack grid
63 k-points in the irreducible part of the Brillouin zone
       k-points in crystal coordinates                weights
   0:     0.00000000    0.00000000    0.00000000          1/125
   1:     0.00000000    0.00000000    0.20000000          2/125
   2:     0.00000000    0.00000000    0.40000000          2/125
   3:     0.00000000    0.20000000   -0.40000000          2/125
   4:     0.00000000    0.20000000   -0.20000000          2/125
   5:     0.00000000    0.20000000    0.00000000          2/125
   6:     0.00000000    0.20000000    0.20000000          2/125
   7:     0.00000000    0.20000000    0.40000000          2/125
   8:     0.00000000    0.40000000   -0.40000000          2/125
   9:     0.00000000    0.40000000   -0.20000000          2/125
          ...
  62:     0.40000000    0.40000000    0.40000000          2/125

Wave functions: Plane wave expansion
  Cutoff energy: 700.000 eV
  Number of coefficients (min, max): 6647, 6679
  Pulay-stress correction: 0.000000 eV/Ang^3 (de/decut=0.000000)
  Using FFTW library
  ScaLapack parameters: grid=1x1, blocksize=None
  Wavefunction extrapolation:
    Improved wavefunction reuse through dual PAW basis

Occupation numbers: Fermi-Dirac:
  width: 0.1000  # eV

Eigensolver
   Davidson(niter=2)

Densities:
  Coarse grid: 40*40*30 grid
  Fine grid: 80*80*60 grid
  Total Charge: 0.000000

Density mixing:
  Method: separate
  Backend: pulay
  Linear mixing parameter: 0.05
  old densities: 5
  Damping of long wavelength oscillations: 50

Hamiltonian:
  XC and Coulomb potentials evaluated on a 80*80*60 grid
  Using the PBE Exchange-Correlation functional
  External potential:
    NoExternalPotential

XC parameters: PBE with 2 nearest neighbor stencil

Total number of cores used: 1

Number of atoms: 15
Number of atomic orbitals: 132
Number of bands in calculation: 82
Number of valence electrons: 129
Bands to converge: occupied

... initialized

Initializing position-dependent things.

Density initialized from atomic densities
Creating initial wave functions:
  82 bands from LCAO basis set

                    N
                 O   O

               Ti
                   C
         Ti      Ti
              C      C
           Ti     Ti
                C
             Ti     Ti
               Ti

Positions:
   0 Ti     0.000000    0.000000    3.586778    ( 0.0000,  0.0000,  0.0000)
   1 Ti     1.540698   -0.889523    1.226991    ( 0.0000,  0.0000,  0.0000)
   2 C      1.540698    0.889523    2.406886    ( 0.0000,  0.0000,  0.0000)
   3 Ti     1.540698    2.668568    3.586778    ( 0.0000,  0.0000,  0.0000)
   4 Ti     3.081396    1.779045    1.226991    ( 0.0000,  0.0000,  0.0000)
   5 C      3.081396    3.558090    2.406886    ( 0.0000,  0.0000,  0.0000)
   6 Ti     1.540698   -2.668568    3.586778    ( 0.0000,  0.0000,  0.0000)
   7 Ti     3.081396   -3.558090    1.226991    ( 0.0000,  0.0000,  0.0000)
   8 C      3.081396   -1.779045    2.406886    ( 0.0000,  0.0000,  0.0000)
   9 Ti     3.081396   -0.000000    3.586778    ( 0.0000,  0.0000,  0.0000)
  10 Ti     4.622095   -0.889523    1.226991    ( 0.0000,  0.0000,  0.0000)
  11 C      4.622095    0.889523    2.406886    ( 0.0000,  0.0000,  0.0000)
  12 N      3.540698    2.889523    9.086778    ( 0.0000,  0.0000,  0.0000)
  13 O      4.412653    2.058015    9.086778    ( 0.0000,  0.0000,  0.0000)
  14 O      2.669034    2.058292    9.086778    ( 0.0000,  0.0000,  0.0000)

Unit cell:
           periodic     x           y           z      points  spacing
  1. axis:    yes    3.081396   -5.337135    0.000000    40     0.1334
  2. axis:    yes    3.081396    5.337135    0.000000    40     0.1334
  3. axis:    yes    0.000000    0.000000    4.813770    30     0.1605

  Lengths:   6.162793   6.162793   4.813770
  Angles:   90.000000  90.000000 120.000000

Effective grid spacing dv^(1/3) = 0.1489

     iter     time        total  log10-change:
                         energy   eigst   dens
iter:   1 18:07:42   -45.745381
iter:   2 18:08:11   -38.204490   -0.27  -0.96
iter:   3 18:08:40   -27.628858   +0.41  -1.02
iter:   4 18:09:09   -27.615732   -0.14  -1.29
iter:   5 18:09:38   -27.801380   -0.75  -1.39
iter:   6 18:10:07   -29.445098   -0.26  -1.49
iter:   7 18:10:35   -28.662602   -1.26  -1.70
iter:   8 18:11:04   -28.449372   -1.30  -1.87
iter:   9 18:11:33   -28.423959   -1.81  -1.99
iter:  10 18:12:01   -28.441524c  -1.60  -2.11
iter:  11 18:12:32   -28.443816c  -2.14  -2.22
iter:  12 18:13:01   -28.498800c  -1.64  -2.33
iter:  13 18:13:30   -28.449581c  -2.08  -2.31
iter:  14 18:13:58   -28.450280c  -2.79  -2.58
iter:  15 18:14:27   -28.470254c  -2.06  -2.61
iter:  16 18:14:57   -28.449914c  -2.71  -2.59
iter:  17 18:15:26   -28.449753c  -3.03  -2.99
iter:  18 18:15:54   -28.449765c  -3.65  -3.00
iter:  19 18:16:22   -28.451955c  -3.10  -3.16
iter:  20 18:16:51   -28.450262c  -3.42  -3.10
iter:  21 18:17:19   -28.450563c  -3.79  -3.45
iter:  22 18:17:48   -28.450103c  -4.27  -3.37
iter:  23 18:18:15   -28.450109c  -4.88  -3.66
iter:  24 18:18:43   -28.450161c  -4.84  -3.69
iter:  25 18:19:09   -28.450181c  -4.59  -3.73
iter:  26 18:19:37   -28.450178c  -5.39  -3.79
iter:  27 18:20:04   -28.450201c  -5.12  -3.92
iter:  28 18:20:31   -28.450181c  -5.31  -3.84
iter:  29 18:20:58   -28.450180c  -5.95  -4.09c
iter:  30 18:21:25   -28.450172c  -6.04  -4.15c
iter:  31 18:21:52   -28.450175c  -6.01  -4.22c
iter:  32 18:22:19   -28.450175c  -6.28  -4.23c
iter:  33 18:22:46   -28.450195c  -5.68  -4.36c
iter:  34 18:23:13   -28.450195c  -6.02  -4.29c
iter:  35 18:23:40   -28.450196c  -6.80  -4.61c
iter:  36 18:24:08   -28.450202c  -6.58  -4.63c
iter:  37 18:24:36   -28.450210c  -6.10  -4.59c
iter:  38 18:25:03   -28.450208c  -7.44c -4.69c

Converged after 38 iterations.

Dipole moment: (2.343758, -3.367480, 6.974330) |e|*Ang

Energy contributions relative to reference atoms: (reference = -195466.052822)

Kinetic:       +480.173265
Potential:     -348.990365
External:        +0.000000
XC:            -157.272298
Entropy (-ST):   -0.263188
Local:           -2.229215
SIC:             +0.000000
Free energy:    -28.581802
Extrapolated:   -28.450208

Showing only first 2 kpts
 Kpt  Band  Eigenvalues  Occupancy
  0    62     10.12264    1.99443
  0    63     10.21432    1.98612
  0    64     10.74646    0.82305
  0    65     10.86552    0.35068

  1    62     10.20446    1.98742
  1    63     10.32358    1.95918
  1    64     10.73246    0.89161
  1    65     10.83711    0.44053

Fermi level: 10.71069

No gap
No difference between direct/indirect transitions

Forces in eV/Ang:
  0 Ti    0.01005   -0.98289   -0.76243
  1 Ti   -0.15225    0.31962    1.22318
  2 C    -0.62141   -0.54893   -0.88385
  3 Ti  -21.98252   10.71922  -12.48051
  4 Ti   -0.58624   -1.59342    6.49032
  5 C    -1.28528    1.20927   -3.32178
  6 Ti   93.27089  150.44036 -198.42013
  7 Ti    0.32820   -0.15247    1.54251
  8 C     0.30629    1.29811   -1.97676
  9 Ti   -0.65736   -1.21607   -0.99757
 10 Ti   -0.48653    0.28784    1.06076
 11 C     0.33196   -1.62648   -1.83329
 12 N   -51.50956   36.87568   22.53210
 13 O   -24.07377 -178.14515  176.30607
 14 O     7.10700  -16.88159   11.52040

System changes: positions

[...]

Density initialized from wave functions

[...]

              Ti   C
         Ti      Ti
              C      C
            Ti    Ti
                C
            Ti      Ti
               Ti

[...]

                    N
                       O
                O

[...]

                    N
                       O
                O

               Ti
                   C
         Ti
              C  Ti   C
            Ti     Ti
                C
             Ti     Ti
               Ti

[...]

               Ti
                   C
         Ti      Ti
              C      C
           Ti     Ti
                C
            Ti      Ti
               Ti

[...]

     iter     time        total  log10-change:
                         energy   eigst   dens
iter:   1 00:30:16  -117.406137   -4.62
iter:   2 00:30:43  -117.406122   -5.57  -3.82
iter:   3 00:31:10  -117.406121c  -5.50  -3.92
iter:   4 00:31:37  -117.406117c  -6.37  -4.17c
iter:   5 00:32:04  -117.406130c  -5.65  -4.27c
iter:   6 00:32:31  -117.406124c  -6.45  -4.49c
iter:   7 00:32:58  -117.406111c  -6.62  -4.45c
iter:   8 00:33:25  -117.406117c  -7.63c -4.80c

[...]

     iter     time        total  log10-change:
                         energy   eigst   dens
iter:   1 00:33:58  -117.406153   -4.87
iter:   2 00:34:25  -117.406140   -5.86  -3.90
iter:   3 00:34:52  -117.406142c  -5.66  -4.00c
iter:   4 00:35:19  -117.406139c  -6.65  -4.32c
iter:   5 00:35:46  -117.406151c  -5.84  -4.39c
iter:   6 00:36:14  -117.406147c  -6.55  -4.62c
iter:   7 00:36:41  -117.406136c  -6.75  -4.53c
iter:   8 00:37:08  -117.406141c  -7.84c -4.95c

[...]

System changes: positions

Initializing position-dependent things.

Density initialized from wave functions

                   N
              O      O

               Ti  C
         Ti      Ti
              C      C
           Ti     Ti
                C
             Ti     Ti
               Ti

Positions:
   0 Ti     0.091888    0.090184    3.456274    ( 0.0000,  0.0000,  0.0000)
   1 Ti     1.613119   -0.779780    1.127716    ( 0.0000,  0.0000,  0.0000)
   2 C      1.632701    1.000524    2.298984    ( 0.0000,  0.0000,  0.0000)
   3 Ti     1.651449    2.781223    3.469714    ( 0.0000,  0.0000,  0.0000)
   4 Ti     3.173130    1.911523    1.140989    ( 0.0000,  0.0000,  0.0000)
   5 C      3.173007    3.669114    2.299091    ( 0.0000,  0.0000,  0.0000)
   6 Ti     1.613870   -2.555825    3.469111    ( 0.0000,  0.0000,  0.0000)
   7 Ti     3.173296   -3.461519    1.167125    ( 0.0000,  0.0000,  0.0000)
   8 C      3.173274   -1.667961    2.298680    ( 0.0000,  0.0000,  0.0000)
   9 Ti     3.173443    0.125565    3.429861    ( 0.0000,  0.0000,  0.0000)
  10 Ti     4.733229   -0.780099    1.127662    ( 0.0000,  0.0000,  0.0000)
  11 C      4.713559    1.000522    2.298903    ( 0.0000,  0.0000,  0.0000)
  12 N      3.173199    3.668692    9.519298    ( 0.0000,  0.0000,  0.0000)
  13 O      4.714574    1.000776    9.519694    ( 0.0000,  0.0000,  0.0000)
  14 O      1.632091    1.000685    9.519641    ( 0.0000,  0.0000,  0.0000)

Unit cell:
           periodic     x           y           z      points  spacing
  1. axis:    yes    3.081396   -5.337135    0.000000    40     0.1334
  2. axis:    yes    3.081396    5.337135    0.000000    40     0.1334
  3. axis:    yes    0.000000    0.000000    4.813770    30     0.1605

  Lengths:   6.162793   6.162793   4.813770
  Angles:   90.000000  90.000000 120.000000

Effective grid spacing dv^(1/3) = 0.1489

     iter     time        total  log10-change:
                         energy   eigst   dens
iter:   1 00:37:42  -117.406158   -5.08
iter:   2 00:38:09  -117.406152   -6.07  -4.01c
iter:   3 00:38:36  -117.406157c  -5.87  -4.13c
iter:   4 00:39:03  -117.406155c  -6.96  -4.47c
iter:   5 00:39:30  -117.406164c  -6.20  -4.52c
iter:   6 00:39:58  -117.406162c  -6.70  -4.78c
iter:   7 00:40:25  -117.406153c  -6.99  -4.63c
iter:   8 00:40:53  -117.406157c  -8.04c -5.10c

Converged after 8 iterations.

Dipole moment: (-2.384880, -8.365685, 10.949276) |e|*Ang

Energy contributions relative to reference atoms: (reference = -195466.052822)

Kinetic:       +120.183978
Potential:     -126.248950
External:        +0.000000
XC:            -112.510258
Entropy (-ST):   -0.147224
Local:           +1.242685
SIC:             +0.000000
Free energy:   -117.479769
Extrapolated:  -117.406157

Showing only first 2 kpts
 Kpt  Band  Eigenvalues  Occupancy
  0    62     10.08795    1.99938
  0    63     10.80367    1.43284
  0    64     11.29580    0.03616
  0    65     11.48076    0.00578

  1    62     10.10819    1.99924
  1    63     10.37879    1.98876
  1    64     11.58984    0.00194
  1    65     11.63993    0.00118

Fermi level: 10.89634

No gap
No difference between direct/indirect transitions

Forces in eV/Ang:
  0 Ti   -0.00258   -0.00072    0.00197
  1 Ti    0.00236   -0.00238    0.00118
  2 C    -0.00081    0.00228   -0.00357
  3 Ti    0.00097   -0.00101    0.00033
  4 Ti    0.00062   -0.00506    0.00226
  5 C     0.00353    0.00201   -0.00668
  6 Ti   -0.00485   -0.00373    0.00715
  7 Ti   -0.00165   -0.00320    0.00376
  8 C    -0.00058    0.00348   -0.00370
  9 Ti   -0.00219   -0.00110    0.00332
 10 Ti   -0.00153    0.00212    0.00075
 11 C     0.00509    0.00267   -0.00366
 12 N     0.00160    0.00582    0.00093
 13 O    -0.00281   -0.00006   -0.00406
 14 O     0.00140   -0.00069   -0.00279

Writing to /home/intvengiel/workshop-physics/system/calculator/NO2-PBEU-1-0-calculator.gpw (mode='all')